c random clauses
p cnf 7 32
-7 -6 -4 -2 0
-7 -6 -4 1 0
-7 -5 -4 -1 0
-7 -5 -3 -1 0
-7 -5 -3 6 0
-7 -5 3 4 0
-7 -3 1 2 0
-7 -2 3 6 0
-7 -2 5 6 0
-6 -5 -4 7 0
-6 -4 -1 2 0
-6 -2 3 7 0
-6 1 4 7 0
-6 2 4 5 0
-5 -4 -1 6 0
-5 -4 2 6 0
-5 -2 4 6 0
-5 1 2 7 0
-5 1 4 6 0
-4 -3 -2 6 0
-4 -3 -1 7 0
-4 -3 5 7 0
-4 -2 -1 3 0
-4 -2 1 3 0
-4 -1 5 7 0
-4 3 5 7 0
-3 4 5 6 0
-2 1 3 4 0
-2 3 5 6 0
-1 3 5 7 0
1 2 3 5 0
4 5 6 7 0
